p cnf 9 28 
c Factors encoded in variables 1-6 and 7-9
c Target number: 301
c Factors: 43 x 7
-5 -9 0
-3 -2 9 8 0
-2 8 0
8 9 0
6 -5 0
6 2 -9 -8 0
6 -5 -3 -2 0
-5 -3 -2 -9 -8 0
-6 5 -3 -8 0
1 0
-6 9 0
-6 -5 3 2 0
7 0
-5 -3 -2 8 0
6 -2 -9 -8 0
-6 5 -9 8 0
3 9 0
-6 -5 9 0
-5 8 0
-5 -3 -8 0
6 5 0
-6 -5 -3 -2 -8 0
-3 9 0
-6 -5 3 -8 0
4 0
-3 -9 0
5 -3 -9 0
2 -8 0
